NAME           C:\Bruker\Hvattum\knapsack\Problems\class1\100-5-04.mps
ROWS
 N  OBJ
 L  CONSTR1
 L  CONSTR2
 L  CONSTR3
 L  CONSTR4
 L  CONSTR5
COLUMNS
    INT0001   'MARKER'  'INTORG'
    X1        OBJ       1068
    X1        CONSTR1   495
    X1        CONSTR2   377
    X1        CONSTR3   278
    X1        CONSTR4   929
    X1        CONSTR5   887
    X2        OBJ       567
    X2        CONSTR1   707
    X2        CONSTR2   556
    X2        CONSTR3   49
    X2        CONSTR4   88
    X2        CONSTR5   133
    X3        OBJ       704
    X3        CONSTR1   875
    X3        CONSTR2   313
    X3        CONSTR3   491
    X3        CONSTR4   946
    X3        CONSTR5   57
    X4        OBJ       973
    X4        CONSTR1   928
    X4        CONSTR2   90
    X4        CONSTR3   78
    X4        CONSTR4   525
    X4        CONSTR5   933
    X5        OBJ       1047
    X5        CONSTR1   542
    X5        CONSTR2   505
    X5        CONSTR3   884
    X5        CONSTR4   836
    X5        CONSTR5   657
    X6        OBJ       874
    X6        CONSTR1   474
    X6        CONSTR2   18
    X6        CONSTR3   456
    X6        CONSTR4   205
    X6        CONSTR5   737
    X7        OBJ       665
    X7        CONSTR1   824
    X7        CONSTR2   101
    X7        CONSTR3   503
    X7        CONSTR4   722
    X7        CONSTR5   110
    X8        OBJ       580
    X8        CONSTR1   312
    X8        CONSTR2   582
    X8        CONSTR3   291
    X8        CONSTR4   118
    X8        CONSTR5   978
    X9        OBJ       959
    X9        CONSTR1   266
    X9        CONSTR2   941
    X9        CONSTR3   981
    X9        CONSTR4   832
    X9        CONSTR5   33
    X10       OBJ       618
    X10       CONSTR1   682
    X10       CONSTR2   459
    X10       CONSTR3   106
    X10       CONSTR4   560
    X10       CONSTR5   707
    X11       OBJ       848
    X11       CONSTR1   366
    X11       CONSTR2   515
    X11       CONSTR3   472
    X11       CONSTR4   732
    X11       CONSTR5   706
    X12       OBJ       1031
    X12       CONSTR1   999
    X12       CONSTR2   959
    X12       CONSTR3   385
    X12       CONSTR4   268
    X12       CONSTR5   51
    X13       OBJ       944
    X13       CONSTR1   147
    X13       CONSTR2   850
    X13       CONSTR3   771
    X13       CONSTR4   14
    X13       CONSTR5   622
    X14       OBJ       852
    X14       CONSTR1   823
    X14       CONSTR2   597
    X14       CONSTR3   744
    X14       CONSTR4   485
    X14       CONSTR5   18
    X15       OBJ       436
    X15       CONSTR1   86
    X15       CONSTR2   523
    X15       CONSTR3   238
    X15       CONSTR4   918
    X15       CONSTR5   366
    X16       OBJ       1096
    X16       CONSTR1   841
    X16       CONSTR2   724
    X16       CONSTR3   306
    X16       CONSTR4   596
    X16       CONSTR5   638
    X17       OBJ       533
    X17       CONSTR1   371
    X17       CONSTR2   256
    X17       CONSTR3   740
    X17       CONSTR4   592
    X17       CONSTR5   658
    X18       OBJ       767
    X18       CONSTR1   853
    X18       CONSTR2   831
    X18       CONSTR3   193
    X18       CONSTR4   374
    X18       CONSTR5   885
    X19       OBJ       819
    X19       CONSTR1   68
    X19       CONSTR2   764
    X19       CONSTR3   733
    X19       CONSTR4   464
    X19       CONSTR5   518
    X20       OBJ       856
    X20       CONSTR1   815
    X20       CONSTR2   940
    X20       CONSTR3   540
    X20       CONSTR4   569
    X20       CONSTR5   215
    X21       OBJ       622
    X21       CONSTR1   88
    X21       CONSTR2   780
    X21       CONSTR3   122
    X21       CONSTR4   559
    X21       CONSTR5   434
    X22       OBJ       848
    X22       CONSTR1   935
    X22       CONSTR2   881
    X22       CONSTR3   425
    X22       CONSTR4   971
    X22       CONSTR5   521
    X23       OBJ       916
    X23       CONSTR1   503
    X23       CONSTR2   280
    X23       CONSTR3   524
    X23       CONSTR4   579
    X23       CONSTR5   414
    X24       OBJ       535
    X24       CONSTR1   785
    X24       CONSTR2   82
    X24       CONSTR3   182
    X24       CONSTR4   263
    X24       CONSTR5   529
    X25       OBJ       1045
    X25       CONSTR1   407
    X25       CONSTR2   862
    X25       CONSTR3   989
    X25       CONSTR4   959
    X25       CONSTR5   143
    X26       OBJ       425
    X26       CONSTR1   172
    X26       CONSTR2   65
    X26       CONSTR3   770
    X26       CONSTR4   326
    X26       CONSTR5   193
    X27       OBJ       1088
    X27       CONSTR1   663
    X27       CONSTR2   346
    X27       CONSTR3   833
    X27       CONSTR4   929
    X27       CONSTR5   573
    X28       OBJ       702
    X28       CONSTR1   415
    X28       CONSTR2   205
    X28       CONSTR3   219
    X28       CONSTR4   45
    X28       CONSTR5   695
    X29       OBJ       995
    X29       CONSTR1   243
    X29       CONSTR2   434
    X29       CONSTR3   587
    X29       CONSTR4   463
    X29       CONSTR5   952
    X30       OBJ       574
    X30       CONSTR1   760
    X30       CONSTR2   354
    X30       CONSTR3   686
    X30       CONSTR4   391
    X30       CONSTR5   443
    X31       OBJ       817
    X31       CONSTR1   323
    X31       CONSTR2   128
    X31       CONSTR3   340
    X31       CONSTR4   328
    X31       CONSTR5   556
    X32       OBJ       960
    X32       CONSTR1   902
    X32       CONSTR2   141
    X32       CONSTR3   169
    X32       CONSTR4   821
    X32       CONSTR5   953
    X33       OBJ       884
    X33       CONSTR1   783
    X33       CONSTR2   407
    X33       CONSTR3   965
    X33       CONSTR4   506
    X33       CONSTR5   340
    X34       OBJ       661
    X34       CONSTR1   675
    X34       CONSTR2   499
    X34       CONSTR3   756
    X34       CONSTR4   907
    X34       CONSTR5   52
    X35       OBJ       759
    X35       CONSTR1   521
    X35       CONSTR2   153
    X35       CONSTR3   123
    X35       CONSTR4   30
    X35       CONSTR5   829
    X36       OBJ       753
    X36       CONSTR1   466
    X36       CONSTR2   548
    X36       CONSTR3   6
    X36       CONSTR4   278
    X36       CONSTR5   312
    X37       OBJ       738
    X37       CONSTR1   521
    X37       CONSTR2   329
    X37       CONSTR3   554
    X37       CONSTR4   447
    X37       CONSTR5   400
    X38       OBJ       538
    X38       CONSTR1   620
    X38       CONSTR2   192
    X38       CONSTR3   686
    X38       CONSTR4   373
    X38       CONSTR5   699
    X39       OBJ       520
    X39       CONSTR1   533
    X39       CONSTR2   565
    X39       CONSTR3   71
    X39       CONSTR4   764
    X39       CONSTR5   227
    X40       OBJ       934
    X40       CONSTR1   208
    X40       CONSTR2   898
    X40       CONSTR3   735
    X40       CONSTR4   588
    X40       CONSTR5   680
    X41       OBJ       806
    X41       CONSTR1   634
    X41       CONSTR2   894
    X41       CONSTR3   295
    X41       CONSTR4   241
    X41       CONSTR5   748
    X42       OBJ       807
    X42       CONSTR1   483
    X42       CONSTR2   642
    X42       CONSTR3   212
    X42       CONSTR4   523
    X42       CONSTR5   902
    X43       OBJ       653
    X43       CONSTR1   542
    X43       CONSTR2   302
    X43       CONSTR3   24
    X43       CONSTR4   402
    X43       CONSTR5   454
    X44       OBJ       555
    X44       CONSTR1   832
    X44       CONSTR2   7
    X44       CONSTR3   553
    X44       CONSTR4   116
    X44       CONSTR5   808
    X45       OBJ       762
    X45       CONSTR1   648
    X45       CONSTR2   331
    X45       CONSTR3   613
    X45       CONSTR4   694
    X45       CONSTR5   413
    X46       OBJ       554
    X46       CONSTR1   441
    X46       CONSTR2   647
    X46       CONSTR3   234
    X46       CONSTR4   423
    X46       CONSTR5   176
    X47       OBJ       1039
    X47       CONSTR1   939
    X47       CONSTR2   858
    X47       CONSTR3   877
    X47       CONSTR4   710
    X47       CONSTR5   435
    X48       OBJ       662
    X48       CONSTR1   380
    X48       CONSTR2   790
    X48       CONSTR3   491
    X48       CONSTR4   177
    X48       CONSTR5   850
    X49       OBJ       1046
    X49       CONSTR1   938
    X49       CONSTR2   604
    X49       CONSTR3   713
    X49       CONSTR4   967
    X49       CONSTR5   988
    X50       OBJ       645
    X50       CONSTR1   640
    X50       CONSTR2   82
    X50       CONSTR3   770
    X50       CONSTR4   138
    X50       CONSTR5   229
    X51       OBJ       682
    X51       CONSTR1   721
    X51       CONSTR2   365
    X51       CONSTR3   506
    X51       CONSTR4   684
    X51       CONSTR5   749
    X52       OBJ       599
    X52       CONSTR1   340
    X52       CONSTR2   94
    X52       CONSTR3   793
    X52       CONSTR4   109
    X52       CONSTR5   891
    X53       OBJ       591
    X53       CONSTR1   390
    X53       CONSTR2   830
    X53       CONSTR3   305
    X53       CONSTR4   996
    X53       CONSTR5   81
    X54       OBJ       642
    X54       CONSTR1   42
    X54       CONSTR2   9
    X54       CONSTR3   282
    X54       CONSTR4   400
    X54       CONSTR5   450
    X55       OBJ       1006
    X55       CONSTR1   705
    X55       CONSTR2   769
    X55       CONSTR3   375
    X55       CONSTR4   988
    X55       CONSTR5   318
    X56       OBJ       633
    X56       CONSTR1   517
    X56       CONSTR2   984
    X56       CONSTR3   2
    X56       CONSTR4   305
    X56       CONSTR5   81
    X57       OBJ       1055
    X57       CONSTR1   5
    X57       CONSTR2   917
    X57       CONSTR3   756
    X57       CONSTR4   708
    X57       CONSTR5   551
    X58       OBJ       631
    X58       CONSTR1   315
    X58       CONSTR2   672
    X58       CONSTR3   660
    X58       CONSTR4   371
    X58       CONSTR5   191
    X59       OBJ       761
    X59       CONSTR1   331
    X59       CONSTR2   189
    X59       CONSTR3   629
    X59       CONSTR4   247
    X59       CONSTR5   668
    X60       OBJ       430
    X60       CONSTR1   534
    X60       CONSTR2   232
    X60       CONSTR3   292
    X60       CONSTR4   83
    X60       CONSTR5   488
    X61       OBJ       644
    X61       CONSTR1   305
    X61       CONSTR2   676
    X61       CONSTR3   230
    X61       CONSTR4   904
    X61       CONSTR5   959
    X62       OBJ       1024
    X62       CONSTR1   941
    X62       CONSTR2   97
    X62       CONSTR3   871
    X62       CONSTR4   464
    X62       CONSTR5   482
    X63       OBJ       933
    X63       CONSTR1   165
    X63       CONSTR2   783
    X63       CONSTR3   192
    X63       CONSTR4   855
    X63       CONSTR5   860
    X64       OBJ       745
    X64       CONSTR1   40
    X64       CONSTR2   500
    X64       CONSTR3   212
    X64       CONSTR4   514
    X64       CONSTR5   483
    X65       OBJ       578
    X65       CONSTR1   332
    X65       CONSTR2   271
    X65       CONSTR3   62
    X65       CONSTR4   949
    X65       CONSTR5   313
    X66       OBJ       1067
    X66       CONSTR1   983
    X66       CONSTR2   480
    X66       CONSTR3   568
    X66       CONSTR4   116
    X66       CONSTR5   763
    X67       OBJ       888
    X67       CONSTR1   770
    X67       CONSTR2   841
    X67       CONSTR3   602
    X67       CONSTR4   433
    X67       CONSTR5   630
    X68       OBJ       680
    X68       CONSTR1   264
    X68       CONSTR2   629
    X68       CONSTR3   888
    X68       CONSTR4   75
    X68       CONSTR5   594
    X69       OBJ       442
    X69       CONSTR1   7
    X69       CONSTR2   162
    X69       CONSTR3   528
    X69       CONSTR4   235
    X69       CONSTR5   294
    X70       OBJ       946
    X70       CONSTR1   525
    X70       CONSTR2   191
    X70       CONSTR3   896
    X70       CONSTR4   133
    X70       CONSTR5   817
    X71       OBJ       652
    X71       CONSTR1   475
    X71       CONSTR2   316
    X71       CONSTR3   213
    X71       CONSTR4   131
    X71       CONSTR5   486
    X72       OBJ       689
    X72       CONSTR1   798
    X72       CONSTR2   616
    X72       CONSTR3   232
    X72       CONSTR4   249
    X72       CONSTR5   424
    X73       OBJ       753
    X73       CONSTR1   509
    X73       CONSTR2   337
    X73       CONSTR3   801
    X73       CONSTR4   793
    X73       CONSTR5   862
    X74       OBJ       913
    X74       CONSTR1   438
    X74       CONSTR2   855
    X74       CONSTR3   780
    X74       CONSTR4   904
    X74       CONSTR5   471
    X75       OBJ       1197
    X75       CONSTR1   77
    X75       CONSTR2   935
    X75       CONSTR3   902
    X75       CONSTR4   934
    X75       CONSTR5   694
    X76       OBJ       518
    X76       CONSTR1   626
    X76       CONSTR2   915
    X76       CONSTR3   80
    X76       CONSTR4   558
    X76       CONSTR5   106
    X77       OBJ       517
    X77       CONSTR1   30
    X77       CONSTR2   148
    X77       CONSTR3   567
    X77       CONSTR4   476
    X77       CONSTR5   315
    X78       OBJ       535
    X78       CONSTR1   591
    X78       CONSTR2   105
    X78       CONSTR3   632
    X78       CONSTR4   566
    X78       CONSTR5   174
    X79       OBJ       619
    X79       CONSTR1   696
    X79       CONSTR2   150
    X79       CONSTR3   578
    X79       CONSTR4   58
    X79       CONSTR5   124
    X80       OBJ       838
    X80       CONSTR1   84
    X80       CONSTR2   800
    X80       CONSTR3   551
    X80       CONSTR4   764
    X80       CONSTR5   271
    X81       OBJ       576
    X81       CONSTR1   346
    X81       CONSTR2   312
    X81       CONSTR3   620
    X81       CONSTR4   548
    X81       CONSTR5   586
    X82       OBJ       749
    X82       CONSTR1   619
    X82       CONSTR2   879
    X82       CONSTR3   689
    X82       CONSTR4   942
    X82       CONSTR5   273
    X83       OBJ       946
    X83       CONSTR1   595
    X83       CONSTR2   547
    X83       CONSTR3   602
    X83       CONSTR4   996
    X83       CONSTR5   479
    X84       OBJ       713
    X84       CONSTR1   504
    X84       CONSTR2   899
    X84       CONSTR3   164
    X84       CONSTR4   953
    X84       CONSTR5   705
    X85       OBJ       482
    X85       CONSTR1   971
    X85       CONSTR2   6
    X85       CONSTR3   534
    X85       CONSTR4   565
    X85       CONSTR5   188
    X86       OBJ       540
    X86       CONSTR1   559
    X86       CONSTR2   454
    X86       CONSTR3   68
    X86       CONSTR4   200
    X86       CONSTR5   530
    X87       OBJ       966
    X87       CONSTR1   792
    X87       CONSTR2   213
    X87       CONSTR3   110
    X87       CONSTR4   304
    X87       CONSTR5   1000
    X88       OBJ       1074
    X88       CONSTR1   940
    X88       CONSTR2   459
    X88       CONSTR3   485
    X88       CONSTR4   398
    X88       CONSTR5   888
    X89       OBJ       276
    X89       CONSTR1   281
    X89       CONSTR2   65
    X89       CONSTR3   343
    X89       CONSTR4   461
    X89       CONSTR5   41
    X90       OBJ       653
    X90       CONSTR1   55
    X90       CONSTR2   320
    X90       CONSTR3   897
    X90       CONSTR4   279
    X90       CONSTR5   640
    X91       OBJ       971
    X91       CONSTR1   524
    X91       CONSTR2   723
    X91       CONSTR3   907
    X91       CONSTR4   678
    X91       CONSTR5   307
    X92       OBJ       968
    X92       CONSTR1   561
    X92       CONSTR2   779
    X92       CONSTR3   744
    X92       CONSTR4   823
    X92       CONSTR5   201
    X93       OBJ       918
    X93       CONSTR1   485
    X93       CONSTR2   786
    X93       CONSTR3   861
    X93       CONSTR4   954
    X93       CONSTR5   424
    X94       OBJ       915
    X94       CONSTR1   963
    X94       CONSTR2   3
    X94       CONSTR3   319
    X94       CONSTR4   540
    X94       CONSTR5   821
    X95       OBJ       997
    X95       CONSTR1   290
    X95       CONSTR2   127
    X95       CONSTR3   580
    X95       CONSTR4   718
    X95       CONSTR5   954
    X96       OBJ       437
    X96       CONSTR1   51
    X96       CONSTR2   214
    X96       CONSTR3   206
    X96       CONSTR4   600
    X96       CONSTR5   185
    X97       OBJ       434
    X97       CONSTR1   692
    X97       CONSTR2   84
    X97       CONSTR3   425
    X97       CONSTR4   346
    X97       CONSTR5   78
    X98       OBJ       643
    X98       CONSTR1   807
    X98       CONSTR2   580
    X98       CONSTR3   775
    X98       CONSTR4   121
    X98       CONSTR5   705
    X99       OBJ       837
    X99       CONSTR1   852
    X99       CONSTR2   970
    X99       CONSTR3   145
    X99       CONSTR4   635
    X99       CONSTR5   470
    X100      OBJ       789
    X100      CONSTR1   737
    X100      CONSTR2   636
    X100      CONSTR3   514
    X100      CONSTR4   956
    X100      CONSTR5   828
    INT0001   'MARKER'  'INTEND'
RHS
    RHS10001  CONSTR1   13164
    RHS10001  CONSTR2   12033
    RHS10001  CONSTR3   12184
    RHS10001  CONSTR4   13178
    RHS10001  CONSTR5   12688
BOUNDS
 BV BND       X1        .00
 BV BND       X2        .00
 BV BND       X3        .00
 BV BND       X4        .00
 BV BND       X5        .00
 BV BND       X6        .00
 BV BND       X7        .00
 BV BND       X8        .00
 BV BND       X9        .00
 BV BND       X10       .00
 BV BND       X11       .00
 BV BND       X12       .00
 BV BND       X13       .00
 BV BND       X14       .00
 BV BND       X15       .00
 BV BND       X16       .00
 BV BND       X17       .00
 BV BND       X18       .00
 BV BND       X19       .00
 BV BND       X20       .00
 BV BND       X21       .00
 BV BND       X22       .00
 BV BND       X23       .00
 BV BND       X24       .00
 BV BND       X25       .00
 BV BND       X26       .00
 BV BND       X27       .00
 BV BND       X28       .00
 BV BND       X29       .00
 BV BND       X30       .00
 BV BND       X31       .00
 BV BND       X32       .00
 BV BND       X33       .00
 BV BND       X34       .00
 BV BND       X35       .00
 BV BND       X36       .00
 BV BND       X37       .00
 BV BND       X38       .00
 BV BND       X39       .00
 BV BND       X40       .00
 BV BND       X41       .00
 BV BND       X42       .00
 BV BND       X43       .00
 BV BND       X44       .00
 BV BND       X45       .00
 BV BND       X46       .00
 BV BND       X47       .00
 BV BND       X48       .00
 BV BND       X49       .00
 BV BND       X50       .00
 BV BND       X51       .00
 BV BND       X52       .00
 BV BND       X53       .00
 BV BND       X54       .00
 BV BND       X55       .00
 BV BND       X56       .00
 BV BND       X57       .00
 BV BND       X58       .00
 BV BND       X59       .00
 BV BND       X60       .00
 BV BND       X61       .00
 BV BND       X62       .00
 BV BND       X63       .00
 BV BND       X64       .00
 BV BND       X65       .00
 BV BND       X66       .00
 BV BND       X67       .00
 BV BND       X68       .00
 BV BND       X69       .00
 BV BND       X70       .00
 BV BND       X71       .00
 BV BND       X72       .00
 BV BND       X73       .00
 BV BND       X74       .00
 BV BND       X75       .00
 BV BND       X76       .00
 BV BND       X77       .00
 BV BND       X78       .00
 BV BND       X79       .00
 BV BND       X80       .00
 BV BND       X81       .00
 BV BND       X82       .00
 BV BND       X83       .00
 BV BND       X84       .00
 BV BND       X85       .00
 BV BND       X86       .00
 BV BND       X87       .00
 BV BND       X88       .00
 BV BND       X89       .00
 BV BND       X90       .00
 BV BND       X91       .00
 BV BND       X92       .00
 BV BND       X93       .00
 BV BND       X94       .00
 BV BND       X95       .00
 BV BND       X96       .00
 BV BND       X97       .00
 BV BND       X98       .00
 BV BND       X99       .00
 BV BND       X100      .00
ENDATA
